#Basis setting
@SET SCALE_FACTOR 1.000
@SET NREPA 1
@SET NREPB 1
@SET NREPC 1
@SET CELL_A 16.9
@SET CELL_B 16.9
@SET CELL_C 16.9
@SET ANGLE_A 90.0
@SET ANGLE_B 90.0
@SET ANGLE_C 90.0
@SET COORDFILE coord.xyz
@SET CUTOFF 400
@SET NSTEPS 1000
@SET JOBNAME DPGEN

&GLOBAL
  PROJECT ${JOBNAME}
  PRINT_LEVEL  MEDIUM
  RUN_TYPE MD
&END GLOBAL

&FORCE_EVAL
  METHOD Quickstep
  STRESS_TENSOR ANALYTICAL
  &PRINT
    &FORCES ON
    &END FORCES
    &STRESS_TENSOR ON
    &END STRESS_TENSOR
  &END PRINT
  &SUBSYS
    &CELL
      ABC [angstrom]   ${CELL_A}*${SCALE_FACTOR} ${CELL_B}*${SCALE_FACTOR} ${CELL_C}*${SCALE_FACTOR}
      ALPHA_BETA_GAMMA ${ANGLE_A} ${ANGLE_B} ${ANGLE_C}
      MULTIPLE_UNIT_CELL ${NREPA} ${NREPB} ${NREPC}
    &END CELL
    &COORD
         @include ${COORDFILE}
    &END COORD
#   &VELOCITY #You can set initial atomic velocities in this section
#   &END VELOCITY
    &KIND O    
      ELEMENT O 
      BASIS_SET DZVP-MOLOPT-SR-GTH
      POTENTIAL GTH-PBE-q6
    &END KIND
    &KIND H    
      ELEMENT H 
      BASIS_SET DZVP-MOLOPT-SR-GTH
      POTENTIAL GTH-PBE-q1
    &END KIND
    &KIND Mg   
      ELEMENT Mg
      BASIS_SET DZVP-MOLOPT-SR-GTH
      POTENTIAL GTH-PBE-q10
    &END KIND
  &END SUBSYS

  &DFT
    BASIS_SET_FILE_NAME  BASIS_MOLOPT
    POTENTIAL_FILE_NAME  POTENTIAL
#   WFN_RESTART_FILE_NAME AIMD-RESTART.wfn
    CHARGE    0 #Net charge
    MULTIPLICITY    1 #Spin multiplicity
    &QS
      EPS_DEFAULT 1E-10 #This is default. Set all EPS_xxx to values such that the energy will be correct up to this value
      EXTRAPOLATION ASPC #Extrapolation for wavefunction during e.g. MD. ASPC is default, PS also be used
      EXTRAPOLATION_ORDER 3 #Order for PS or ASPC extrapolation. 3 is default
    &END QS
    &POISSON
      PERIODIC XYZ #Direction(s) of PBC for calculating electrostatics
      PSOLVER PERIODIC #The way to solve Poisson equation
    &END POISSON
    &XC
      &XC_FUNCTIONAL PBE
      &END XC_FUNCTIONAL
      &VDW_POTENTIAL
        POTENTIAL_TYPE PAIR_POTENTIAL
        &PAIR_POTENTIAL
          PARAMETER_FILE_NAME dftd3.dat
          TYPE DFTD3(BJ)
          REFERENCE_FUNCTIONAL PBE
        &END PAIR_POTENTIAL
      &END VDW_POTENTIAL
    &END XC
    &MGRID
      CUTOFF ${CUTOFF}
      REL_CUTOFF 55
    &END MGRID
    &SCF
      MAX_SCF 100 #Maximum number of steps of inner SCF
      EPS_SCF 1.0E-06 #Convergence threshold of density matrix of inner SCF
      SCF_GUESS RESTART #Use wavefunction from WFN_RESTART_FILE_NAME file as initial guess
      &OT
        PRECONDITIONER FULL_KINETIC #FULL_SINGLE_INVERSE is also worth to try. FULL_ALL is better but quite expensive for large system
        MINIMIZER DIIS #CG is worth to consider in difficult cases
        LINESEARCH 2PNT #1D line search algorithm for CG. 2PNT is default, 3PNT is better but more costly. GOLD is best but very expensive
      &END OT
       &OUTER_SCF
         MAX_SCF 20 #Maximum number of steps of outer SCF
         EPS_SCF 1.0E-06 #Convergence threshold of outer SCF
       &END OUTER_SCF
      &PRINT
        &RESTART #Use "&RESTART OFF" can prevent generating wfn file
          BACKUP_COPIES 0 #Maximum number of backup copies of wfn file
        &END RESTART
      &END PRINT
    &END SCF
  &END DFT
&END FORCE_EVAL

&MOTION
  &MD
    ENSEMBLE NVT
    STEPS ${NSTEPS}
    TIMESTEP 1.0 #fs. Decrease it properly for high temperature simulation
    TEMPERATURE 300 #Initial and maintained temperature (K)
    &THERMOSTAT
      TYPE CSVR
      &CSVR
        TIMECON 20 #Time constant in fs. Smaller/larger results in stronger/weaker temperature coupling
      &END CSVR
    &END THERMOSTAT
  &END MD
  &PRINT
    &STRESS
      &EACH
       MD      1
      &END EACH
    &END STRESS
    &FORCES
      &EACH
       MD      1
      &END EACH
    &END FORCES
    &CELL
      &EACH
       MD      1
      &END EACH
    &END CELL
    &TRAJECTORY
      &EACH
        MD     1 #Output frequency of geometry
      &END EACH
      FORMAT xyz
    &END TRAJECTORY
    &VELOCITIES
      &EACH 
        MD     1 #Output frequency of velocity
      &END EACH
    &END VELOCITIES
    &RESTART
      BACKUP_COPIES 0 #Maximum number of backing up restart file
      &EACH
        MD 10 #Frequency of updating last restart file
      &END EACH
    &END RESTART
  &END PRINT
&END MOTION
